Please solve the following SAT Problem encoded in DIMACS format, provide line of thoughts, write your final answer as a single solution at the end of response with header 'answer: ' : 
p cnf 10 65
1 3 -5 0
8 -5 3 0
-3 4 -7 0
-6 9 5 0
4 3 9 0
-6 3 -7 0
9 8 -7 0
-5 4 -10 0
3 4 8 0
9 -10 -1 0
-7 -6 9 0
9 1 -10 0
7 -8 9 0
2 -5 3 0
6 9 2 0
-6 -5 9 0
-7 -5 -3 0
5 9 -4 0
3 9 -5 0
-7 -10 5 0
-6 2 9 0
2 -10 9 0
-5 4 -2 0
9 -10 -7 0
-10 8 9 0
9 -5 -10 0
3 8 -7 0
-7 4 1 0
-7 -5 -10 0
-10 -5 -7 0
-1 -5 4 0
-7 2 1 0
-5 -1 2 0
1 9 8 0
-5 9 1 0
-7 2 3 0
1 2 9 0
-5 -6 -8 0
3 -6 1 0
-10 7 1 0
8 -5 4 0
5 -1 9 0
4 -10 3 0
9 4 2 0
-9 8 -7 0
6 9 -4 0
-7 3 1 0
-3 -7 2 0
2 7 8 0
-5 4 2 0
9 -10 -7 0
2 1 -7 0
2 3 8 0
4 3 -10 0
-8 2 1 0
4 2 1 0
1 2 4 0
-2 3 -7 0
9 2 -6 0
-6 7 8 0
2 -4 3 0
3 -6 -10 0
-7 4 -5 0
-5 4 -3 0
-10 4 7 0

